

******************************************************************************
This program contains Ipopt, a library for large-scale nonlinear optimization.
 Ipopt is released as open source code under the Eclipse Public License (EPL).
         For more information visit https://github.com/coin-or/Ipopt
******************************************************************************

This is Ipopt version 3.14.11, running with linear solver MUMPS 5.5.1.

Number of nonzeros in equality constraint Jacobian...:        0
Number of nonzeros in inequality constraint Jacobian.:        0
Number of nonzeros in Lagrangian Hessian.............:       21

Total number of variables............................:        6
                     variables with only lower bounds:        2
                variables with lower and upper bounds:        0
                     variables with only upper bounds:        0
Total number of equality constraints.................:        0
Total number of inequality constraints...............:        0
        inequality constraints with only lower bounds:        0
   inequality constraints with lower and upper bounds:        0
        inequality constraints with only upper bounds:        0

iter    objective    inf_pr   inf_du lg(mu)  ||d||  lg(rg) alpha_du alpha_pr  ls
   0  4.7847093e+03 0.00e+00 1.00e+02  -1.0 0.00e+00    -  0.00e+00 0.00e+00   0
   1  1.8707022e+03 0.00e+00 5.99e+01  -1.0 5.99e-01   2.0 1.00e+00 1.00e+00f  1
   2  4.2275989e+02 0.00e+00 1.99e+01  -1.0 5.98e-01   1.5 1.00e+00 1.00e+00f  1
   3  2.4354123e+02 0.00e+00 2.92e+00  -1.0 2.63e-01   1.0 1.00e+00 1.00e+00f  1
   4  2.1869591e+02 0.00e+00 1.33e+00  -1.0 2.85e-01   0.6 1.00e+00 1.00e+00f  1
   5  1.9286222e+02 0.00e+00 2.58e+00  -1.0 2.18e-01   1.0 1.00e+00 1.00e+00f  1
   6  1.6772466e+02 0.00e+00 3.50e+00  -1.0 1.37e-01   1.4 1.00e+00 1.00e+00f  1
   7  1.4817896e+02 0.00e+00 7.15e+00  -1.0 7.06e-01   0.9 1.00e+00 1.91e-01f  2
   8  1.0521111e+02 0.00e+00 1.81e+00  -1.0 3.50e-01   0.5 1.00e+00 1.00e+00f  1
   9  1.6706446e+01 0.00e+00 1.21e+00  -1.0 2.85e+01    -  3.11e-01 1.00e+00f  1
iter    objective    inf_pr   inf_du lg(mu)  ||d||  lg(rg) alpha_du alpha_pr  ls
  10  1.2546613e+01 0.00e+00 5.17e-01  -1.0 1.40e-01  -0.0 1.00e+00 1.00e+00f  1
  11  2.5742781e+00 0.00e+00 5.98e-01  -1.7 9.79e+00    -  6.76e-01 1.00e+00f  1
  12  2.2785382e+00 0.00e+00 6.94e-02  -1.7 4.27e-02  -0.5 1.00e+00 1.00e+00f  1
  13  2.1423678e+00 0.00e+00 1.19e-02  -2.5 1.06e-01  -1.0 1.00e+00 1.00e+00f  1
  14  1.9385227e+00 0.00e+00 1.04e-02  -3.8 2.39e-01  -1.4 1.00e+00 1.00e+00f  1
  15  1.5328802e+00 0.00e+00 7.94e-02  -3.8 5.38e-01  -1.9 1.00e+00 1.00e+00f  1
  16  1.3894808e+00 0.00e+00 8.23e-01  -3.8 2.38e+01    -  1.00e+00 4.21e-02f  3
  17  6.9091136e-01 0.00e+00 6.30e-01  -3.8 1.29e+00  -2.4 1.00e+00 1.00e+00f  1
  18  4.1290317e-01 0.00e+00 1.86e-01  -3.8 3.56e-01  -2.0 1.00e+00 1.00e+00f  1
  19  1.8787712e-01 0.00e+00 1.65e-01  -3.8 2.91e+00    -  1.00e+00 1.00e+00f  1
iter    objective    inf_pr   inf_du lg(mu)  ||d||  lg(rg) alpha_du alpha_pr  ls
  20  1.6873602e-01 0.00e+00 3.93e-02  -3.8 1.91e-01  -2.4 1.00e+00 1.00e+00f  1
  21  1.5717779e-01 0.00e+00 4.05e-01  -3.8 1.97e+00    -  1.00e+00 5.00e-01f  2
  22  1.2808438e-01 0.00e+00 3.67e-02  -3.8 3.92e-01    -  1.00e+00 1.00e+00f  1
  23  1.1870195e-01 0.00e+00 3.04e-01  -3.8 1.57e+00    -  1.00e+00 5.00e-01f  2
  24  1.0061094e-01 0.00e+00 5.06e-02  -3.8 3.29e-01    -  1.00e+00 1.00e+00f  1
  25  9.2728481e-02 0.00e+00 1.99e-01  -3.8 1.27e+00    -  1.00e+00 5.00e-01f  2
  26  8.1833771e-02 0.00e+00 7.86e-02  -3.8 4.34e-01    -  1.00e+00 1.00e+00f  1
  27  7.8838040e-02 0.00e+00 2.96e-01  -3.8 8.63e-01    -  1.00e+00 1.00e+00f  1
  28  6.6753073e-02 0.00e+00 2.19e-02  -3.8 2.49e-01    -  1.00e+00 1.00e+00f  1
  29  6.5418385e-02 0.00e+00 2.53e-01  -3.8 1.61e+00    -  1.00e+00 5.00e-01f  2
iter    objective    inf_pr   inf_du lg(mu)  ||d||  lg(rg) alpha_du alpha_pr  ls
  30  5.6992114e-02 0.00e+00 1.97e-02  -3.8 2.36e-01    -  1.00e+00 1.00e+00f  1
  31  5.6176521e-02 0.00e+00 2.15e-01  -3.8 1.52e+00    -  1.00e+00 5.00e-01f  2
  32  5.0378800e-02 0.00e+00 1.74e-02  -3.8 2.28e-01    -  1.00e+00 1.00e+00f  1
  33  4.9900105e-02 0.00e+00 1.80e-01  -3.8 1.42e+00    -  1.00e+00 5.00e-01f  2
  34  4.6027091e-02 0.00e+00 1.54e-02  -3.8 2.18e-01    -  1.00e+00 1.00e+00f  1
  35  4.5718448e-02 0.00e+00 1.44e-01  -3.8 1.29e+00    -  1.00e+00 5.00e-01f  2
  36  4.3302475e-02 0.00e+00 1.43e-02  -3.8 2.13e-01    -  1.00e+00 1.00e+00f  1
  37  4.3051411e-02 0.00e+00 1.05e-01  -3.8 1.12e+00    -  1.00e+00 5.00e-01f  2
  38  4.1731816e-02 0.00e+00 1.49e-02  -3.8 2.21e-01    -  1.00e+00 1.00e+00f  1
  39  4.1523233e-02 0.00e+00 6.61e-02  -3.8 8.78e-01    -  1.00e+00 5.00e-01f  2
iter    objective    inf_pr   inf_du lg(mu)  ||d||  lg(rg) alpha_du alpha_pr  ls
  40  4.0951950e-02 0.00e+00 1.95e-02  -3.8 2.56e-01    -  1.00e+00 1.00e+00f  1
  41  4.1384064e-02 0.00e+00 9.56e-02  -3.8 5.68e-01    -  1.00e+00 1.00e+00f  1
  42  4.0617192e-02 0.00e+00 3.69e-03  -3.8 1.15e-01    -  1.00e+00 1.00e+00f  1
  43  4.0826956e-02 0.00e+00 4.92e-02  -3.8 8.08e-01    -  1.00e+00 5.00e-01f  2
  44  4.0669142e-02 0.00e+00 4.84e-03  -3.8 1.30e-01    -  1.00e+00 1.00e+00f  1
  45  4.0784261e-02 0.00e+00 1.75e-02  -3.8 4.61e-01    -  1.00e+00 5.00e-01f  2
  46  4.0860659e-02 0.00e+00 8.37e-03  -3.8 1.72e-01    -  1.00e+00 1.00e+00f  1
  47  4.0984803e-02 0.00e+00 9.19e-03  -3.8 1.81e-01    -  1.00e+00 1.00e+00f  1
  48  4.1047534e-02 0.00e+00 2.20e-03  -3.8 8.89e-02    -  1.00e+00 1.00e+00f  1
  49  4.1112381e-02 0.00e+00 1.70e-03  -3.8 7.81e-02    -  1.00e+00 1.00e+00f  1
iter    objective    inf_pr   inf_du lg(mu)  ||d||  lg(rg) alpha_du alpha_pr  ls
  50  4.1127664e-02 0.00e+00 8.91e-05  -3.8 1.79e-02    -  1.00e+00 1.00e+00f  1
  51  4.0946255e-02 0.00e+00 2.49e-02  -5.7 1.19e+00    -  1.00e+00 2.50e-01f  3
  52  4.0782387e-02 0.00e+00 1.48e-02  -5.7 2.28e-01    -  1.00e+00 1.00e+00f  1
  53  4.0688694e-02 0.00e+00 1.63e-02  -5.7 2.39e-01    -  1.00e+00 1.00e+00f  1
  54  4.0634588e-02 0.00e+00 5.30e-03  -5.7 1.36e-01    -  1.00e+00 1.00e+00f  1
  55  4.0613776e-02 0.00e+00 6.73e-03  -5.7 1.53e-01    -  1.00e+00 1.00e+00f  1
  56  4.0607190e-02 0.00e+00 6.92e-04  -5.7 4.90e-02    -  1.00e+00 1.00e+00f  1
  57  4.0606253e-02 0.00e+00 3.18e-04  -5.7 3.32e-02    -  1.00e+00 1.00e+00f  1
  58  4.0606217e-02 0.00e+00 1.49e-06  -5.7 2.27e-03    -  1.00e+00 1.00e+00f  1
  59  4.0606140e-02 0.00e+00 5.28e-05  -8.6 1.35e-02    -  1.00e+00 1.00e+00f  1
iter    objective    inf_pr   inf_du lg(mu)  ||d||  lg(rg) alpha_du alpha_pr  ls
  60  4.0606139e-02 0.00e+00 1.21e-11  -8.6 7.78e-06    -  1.00e+00 1.00e+00f  1

Number of Iterations....: 60

                                   (scaled)                 (unscaled)
Objective...............:   7.9089795808837365e-04    4.0606139378105290e-02
Dual infeasibility......:   1.2078304399540930e-11    6.2012211168730671e-10
Constraint violation....:   0.0000000000000000e+00    0.0000000000000000e+00
Variable bound violation:   0.0000000000000000e+00    0.0000000000000000e+00
Complementarity.........:   2.5059034181286492e-09    1.2865763835140972e-07
Overall NLP error.......:   2.5059034181286492e-09    1.2865763835140972e-07


Number of objective function evaluations             = 133
Number of objective gradient evaluations             = 61
Number of equality constraint evaluations            = 0
Number of inequality constraint evaluations          = 0
Number of equality constraint Jacobian evaluations   = 0
Number of inequality constraint Jacobian evaluations = 0
Number of Lagrangian Hessian evaluations             = 60
Total seconds in IPOPT                               = 0.040

EXIT: Optimal Solution Found.
 
Ipopt 3.14.11: Optimal Solution Found
